c File: flat50_3_0.col
c
c SOURCE: Joseph Culberson (joe@cs.ualberta.ca)
c DESCRIPTION: Quasi-random coloring problem
c              generated with flatness = 0
c                             probability = 0.139
c                             known coloring = 3
c                             random seed = 1507
c              Creation Date:  Tue Jun  9 12:11:00 1998
c Maximum degree = 8 Minimum degree = 1
c p edge 50 115
c cnf created by edge2cnf
p cnf 150 545
-1 -2 0
-1 -3 0
-2 -3 0
1 2 3 0
-4 -5 0
-4 -6 0
-5 -6 0
4 5 6 0
-7 -8 0
-7 -9 0
-8 -9 0
7 8 9 0
-10 -11 0
-10 -12 0
-11 -12 0
10 11 12 0
-13 -14 0
-13 -15 0
-14 -15 0
13 14 15 0
-16 -17 0
-16 -18 0
-17 -18 0
16 17 18 0
-19 -20 0
-19 -21 0
-20 -21 0
19 20 21 0
-22 -23 0
-22 -24 0
-23 -24 0
22 23 24 0
-25 -26 0
-25 -27 0
-26 -27 0
25 26 27 0
-28 -29 0
-28 -30 0
-29 -30 0
28 29 30 0
-31 -32 0
-31 -33 0
-32 -33 0
31 32 33 0
-34 -35 0
-34 -36 0
-35 -36 0
34 35 36 0
-37 -38 0
-37 -39 0
-38 -39 0
37 38 39 0
-40 -41 0
-40 -42 0
-41 -42 0
40 41 42 0
-43 -44 0
-43 -45 0
-44 -45 0
43 44 45 0
-46 -47 0
-46 -48 0
-47 -48 0
46 47 48 0
-49 -50 0
-49 -51 0
-50 -51 0
49 50 51 0
-52 -53 0
-52 -54 0
-53 -54 0
52 53 54 0
-55 -56 0
-55 -57 0
-56 -57 0
55 56 57 0
-58 -59 0
-58 -60 0
-59 -60 0
58 59 60 0
-61 -62 0
-61 -63 0
-62 -63 0
61 62 63 0
-64 -65 0
-64 -66 0
-65 -66 0
64 65 66 0
-67 -68 0
-67 -69 0
-68 -69 0
67 68 69 0
-70 -71 0
-70 -72 0
-71 -72 0
70 71 72 0
-73 -74 0
-73 -75 0
-74 -75 0
73 74 75 0
-76 -77 0
-76 -78 0
-77 -78 0
76 77 78 0
-79 -80 0
-79 -81 0
-80 -81 0
79 80 81 0
-82 -83 0
-82 -84 0
-83 -84 0
82 83 84 0
-85 -86 0
-85 -87 0
-86 -87 0
85 86 87 0
-88 -89 0
-88 -90 0
-89 -90 0
88 89 90 0
-91 -92 0
-91 -93 0
-92 -93 0
91 92 93 0
-94 -95 0
-94 -96 0
-95 -96 0
94 95 96 0
-97 -98 0
-97 -99 0
-98 -99 0
97 98 99 0
-100 -101 0
-100 -102 0
-101 -102 0
100 101 102 0
-103 -104 0
-103 -105 0
-104 -105 0
103 104 105 0
-106 -107 0
-106 -108 0
-107 -108 0
106 107 108 0
-109 -110 0
-109 -111 0
-110 -111 0
109 110 111 0
-112 -113 0
-112 -114 0
-113 -114 0
112 113 114 0
-115 -116 0
-115 -117 0
-116 -117 0
115 116 117 0
-118 -119 0
-118 -120 0
-119 -120 0
118 119 120 0
-121 -122 0
-121 -123 0
-122 -123 0
121 122 123 0
-124 -125 0
-124 -126 0
-125 -126 0
124 125 126 0
-127 -128 0
-127 -129 0
-128 -129 0
127 128 129 0
-130 -131 0
-130 -132 0
-131 -132 0
130 131 132 0
-133 -134 0
-133 -135 0
-134 -135 0
133 134 135 0
-136 -137 0
-136 -138 0
-137 -138 0
136 137 138 0
-139 -140 0
-139 -141 0
-140 -141 0
139 140 141 0
-142 -143 0
-142 -144 0
-143 -144 0
142 143 144 0
-145 -146 0
-145 -147 0
-146 -147 0
145 146 147 0
-148 -149 0
-148 -150 0
-149 -150 0
148 149 150 0
-52 -1 0
-53 -2 0
-54 -3 0
-61 -1 0
-62 -2 0
-63 -3 0
-64 -1 0
-65 -2 0
-66 -3 0
-64 -4 0
-65 -5 0
-66 -6 0
-85 -4 0
-86 -5 0
-87 -6 0
-106 -4 0
-107 -5 0
-108 -6 0
-55 -7 0
-56 -8 0
-57 -9 0
-76 -7 0
-77 -8 0
-78 -9 0
-79 -7 0
-80 -8 0
-81 -9 0
-97 -7 0
-98 -8 0
-99 -9 0
-136 -7 0
-137 -8 0
-138 -9 0
-145 -7 0
-146 -8 0
-147 -9 0
-88 -10 0
-89 -11 0
-90 -12 0
-115 -10 0
-116 -11 0
-117 -12 0
-52 -13 0
-53 -14 0
-54 -15 0
-58 -13 0
-59 -14 0
-60 -15 0
-85 -13 0
-86 -14 0
-87 -15 0
-106 -13 0
-107 -14 0
-108 -15 0
-115 -13 0
-116 -14 0
-117 -15 0
-64 -16 0
-65 -17 0
-66 -18 0
-67 -16 0
-68 -17 0
-69 -18 0
-97 -16 0
-98 -17 0
-99 -18 0
-124 -16 0
-125 -17 0
-126 -18 0
-139 -16 0
-140 -17 0
-141 -18 0
-142 -16 0
-143 -17 0
-144 -18 0
-148 -16 0
-149 -17 0
-150 -18 0
-52 -19 0
-53 -20 0
-54 -21 0
-55 -19 0
-56 -20 0
-57 -21 0
-58 -19 0
-59 -20 0
-60 -21 0
-76 -19 0
-77 -20 0
-78 -21 0
-103 -19 0
-104 -20 0
-105 -21 0
-139 -19 0
-140 -20 0
-141 -21 0
-148 -19 0
-149 -20 0
-150 -21 0
-55 -22 0
-56 -23 0
-57 -24 0
-115 -22 0
-116 -23 0
-117 -24 0
-130 -22 0
-131 -23 0
-132 -24 0
-106 -25 0
-107 -26 0
-108 -27 0
-121 -25 0
-122 -26 0
-123 -27 0
-145 -25 0
-146 -26 0
-147 -27 0
-58 -28 0
-59 -29 0
-60 -30 0
-85 -28 0
-86 -29 0
-87 -30 0
-118 -28 0
-119 -29 0
-120 -30 0
-136 -28 0
-137 -29 0
-138 -30 0
-61 -31 0
-62 -32 0
-63 -33 0
-70 -31 0
-71 -32 0
-72 -33 0
-76 -31 0
-77 -32 0
-78 -33 0
-97 -31 0
-98 -32 0
-99 -33 0
-145 -31 0
-146 -32 0
-147 -33 0
-58 -34 0
-59 -35 0
-60 -36 0
-70 -34 0
-71 -35 0
-72 -36 0
-82 -34 0
-83 -35 0
-84 -36 0
-88 -34 0
-89 -35 0
-90 -36 0
-145 -34 0
-146 -35 0
-147 -36 0
-127 -37 0
-128 -38 0
-129 -39 0
-136 -37 0
-137 -38 0
-138 -39 0
-55 -40 0
-56 -41 0
-57 -42 0
-64 -40 0
-65 -41 0
-66 -42 0
-88 -40 0
-89 -41 0
-90 -42 0
-103 -40 0
-104 -41 0
-105 -42 0
-118 -40 0
-119 -41 0
-120 -42 0
-133 -40 0
-134 -41 0
-135 -42 0
-139 -40 0
-140 -41 0
-141 -42 0
-61 -43 0
-62 -44 0
-63 -45 0
-82 -43 0
-83 -44 0
-84 -45 0
-91 -43 0
-92 -44 0
-93 -45 0
-121 -43 0
-122 -44 0
-123 -45 0
-136 -43 0
-137 -44 0
-138 -45 0
-148 -43 0
-149 -44 0
-150 -45 0
-67 -46 0
-68 -47 0
-69 -48 0
-76 -46 0
-77 -47 0
-78 -48 0
-91 -46 0
-92 -47 0
-93 -48 0
-118 -46 0
-119 -47 0
-120 -48 0
-133 -46 0
-134 -47 0
-135 -48 0
-115 -49 0
-116 -50 0
-117 -51 0
-118 -49 0
-119 -50 0
-120 -51 0
-139 -49 0
-140 -50 0
-141 -51 0
-148 -49 0
-149 -50 0
-150 -51 0
-130 -52 0
-131 -53 0
-132 -54 0
-139 -52 0
-140 -53 0
-141 -54 0
-118 -55 0
-119 -56 0
-120 -57 0
-124 -55 0
-125 -56 0
-126 -57 0
-127 -55 0
-128 -56 0
-129 -57 0
-130 -55 0
-131 -56 0
-132 -57 0
-106 -58 0
-107 -59 0
-108 -60 0
-115 -58 0
-116 -59 0
-117 -60 0
-115 -61 0
-116 -62 0
-117 -63 0
-139 -61 0
-140 -62 0
-141 -63 0
-142 -61 0
-143 -62 0
-144 -63 0
-112 -64 0
-113 -65 0
-114 -66 0
-133 -64 0
-134 -65 0
-135 -66 0
-145 -64 0
-146 -65 0
-147 -66 0
-148 -64 0
-149 -65 0
-150 -66 0
-109 -67 0
-110 -68 0
-111 -69 0
-136 -67 0
-137 -68 0
-138 -69 0
-112 -70 0
-113 -71 0
-114 -72 0
-112 -73 0
-113 -74 0
-114 -75 0
-121 -73 0
-122 -74 0
-123 -75 0
-115 -76 0
-116 -77 0
-117 -78 0
-127 -76 0
-128 -77 0
-129 -78 0
-136 -76 0
-137 -77 0
-138 -78 0
-127 -82 0
-128 -83 0
-129 -84 0
-133 -82 0
-134 -83 0
-135 -84 0
-142 -82 0
-143 -83 0
-144 -84 0
-148 -85 0
-149 -86 0
-150 -87 0
-130 -88 0
-131 -89 0
-132 -90 0
-139 -88 0
-140 -89 0
-141 -90 0
-118 -94 0
-119 -95 0
-120 -96 0
-130 -94 0
-131 -95 0
-132 -96 0
-133 -94 0
-134 -95 0
-135 -96 0
-139 -94 0
-140 -95 0
-141 -96 0
-142 -97 0
-143 -98 0
-144 -99 0
-109 -100 0
-110 -101 0
-111 -102 0
-124 -100 0
-125 -101 0
-126 -102 0
-133 -100 0
-134 -101 0
-135 -102 0
-148 -100 0
-149 -101 0
-150 -102 0
